# gen by python
param Kdim := 3;
param n := 10;
param : E : c I :=
1 3 3 1
1 6 10 1
2 5 8 1
2 6 1 1
2 7 3 1
2 9 9 1
2 10 1 1
3 9 5 1
3 10 5 1
4 5 7 1
4 7 5 1
4 9 4 1
4 10 1 1
5 7 4 1
5 8 5 1
5 9 6 1
5 10 10 1
6 7 10 1
6 8 1 1
6 9 4 1
6 10 7 1
8 9 10 1
;
